(set-info :smt-lib-version 2.6)
(set-logic QF_UFLRA)
(set-info :source |
MathSat group

|)
(set-info :category "random")
(set-info :status unsat)
(declare-fun x0 () Real)
(declare-fun x1 () Real)
(declare-fun x2 () Real)
(declare-fun x3 () Real)
(declare-fun x4 () Real)
(declare-fun x5 () Real)
(declare-fun x6 () Real)
(declare-fun x7 () Real)
(declare-fun x8 () Real)
(declare-fun x9 () Real)
(declare-fun x10 () Real)
(declare-fun x11 () Real)
(declare-fun x12 () Real)
(declare-fun x13 () Real)
(declare-fun x14 () Real)
(declare-fun x15 () Real)
(declare-fun x16 () Real)
(declare-fun x17 () Real)
(declare-fun x18 () Real)
(declare-fun x19 () Real)
(declare-fun x20 () Real)
(declare-fun x21 () Real)
(declare-fun x22 () Real)
(declare-fun x23 () Real)
(declare-fun x24 () Real)
(declare-fun x25 () Real)
(declare-fun x26 () Real)
(declare-fun x27 () Real)
(declare-fun x28 () Real)
(declare-fun x29 () Real)
(declare-fun x30 () Real)
(declare-fun x31 () Real)
(declare-fun x32 () Real)
(declare-fun x33 () Real)
(declare-fun x34 () Real)
(declare-fun x35 () Real)
(declare-fun x36 () Real)
(declare-fun x37 () Real)
(declare-fun x38 () Real)
(declare-fun x39 () Real)
(declare-fun x40 () Real)
(declare-fun x41 () Real)
(declare-fun x42 () Real)
(declare-fun x43 () Real)
(declare-fun x44 () Real)
(declare-fun x45 () Real)
(declare-fun x46 () Real)
(declare-fun x47 () Real)
(declare-fun x48 () Real)
(declare-fun x49 () Real)
(declare-fun f0_1 (Real) Real)
(declare-fun f0_2 (Real Real) Real)
(declare-fun f0_3 (Real Real Real) Real)
(declare-fun f0_4 (Real Real Real Real) Real)
(declare-fun P0 () Bool)
(declare-fun P1 () Bool)
(declare-fun P2 () Bool)
(declare-fun P3 () Bool)
(declare-fun P4 () Bool)
(declare-fun P5 () Bool)
(declare-fun P6 () Bool)
(declare-fun P7 () Bool)
(declare-fun P8 () Bool)
(declare-fun P9 () Bool)
(declare-fun P10 () Bool)
(declare-fun P11 () Bool)
(declare-fun P12 () Bool)
(declare-fun P13 () Bool)
(declare-fun P14 () Bool)
(declare-fun P15 () Bool)
(declare-fun P16 () Bool)
(declare-fun P17 () Bool)
(declare-fun P18 () Bool)
(declare-fun P19 () Bool)
(declare-fun P20 () Bool)
(declare-fun P21 () Bool)
(declare-fun P22 () Bool)
(declare-fun P23 () Bool)
(declare-fun P24 () Bool)
(declare-fun P25 () Bool)
(declare-fun P26 () Bool)
(declare-fun P27 () Bool)
(declare-fun P28 () Bool)
(declare-fun P29 () Bool)
(declare-fun P30 () Bool)
(declare-fun P31 () Bool)
(declare-fun P32 () Bool)
(declare-fun P33 () Bool)
(declare-fun P34 () Bool)
(declare-fun P35 () Bool)
(declare-fun P36 () Bool)
(declare-fun P37 () Bool)
(declare-fun P38 () Bool)
(declare-fun P39 () Bool)
(declare-fun P40 () Bool)
(declare-fun P41 () Bool)
(declare-fun P42 () Bool)
(declare-fun P43 () Bool)
(declare-fun P44 () Bool)
(declare-fun P45 () Bool)
(declare-fun P46 () Bool)
(declare-fun P47 () Bool)
(declare-fun P48 () Bool)
(declare-fun P49 () Bool)
(assert (let ((?v_61 (<= (- (- (* 21 x49) (* 20 x46)) (* 13 x43)) 21)) (?v_15 (* 5 x4)) (?v_87 (<= (+ (- (* 20 x45) (* 8 x46)) (* 9 x11)) 0)) (?v_33 (< (+ (- (* 9 x37) (* 26 x6)) (* 19 x2)) 10)) (?v_104 (< (- (+ (* 15 x25) (* 25 x26)) (* 18 x31)) 24)) (?v_34 (* 10 x35)) (?v_54 (distinct (f0_1 x13) (f0_2 x42 x42))) (?v_150 (= x21 x33)) (?v_19 (f0_1 x9))) (let ((?v_170 (distinct ?v_19 x49)) (?v_145 (distinct (f0_2 x20 x23) (f0_1 x19))) (?v_72 (= (f0_2 x8 x11) (f0_1 x31))) (?v_77 (= (f0_2 x21 x34) (f0_1 x48))) (?v_252 (= (f0_1 x25) (f0_2 x37 x47))) (?v_50 (distinct (f0_2 x26 x49) (f0_1 x18))) (?v_8 (f0_1 x5))) (let ((?v_7 (= x4 ?v_8)) (?v_120 (distinct (f0_1 x0) (f0_2 x31 x18))) (?v_71 (= (f0_2 x39 x27) x4)) (?v_65 (distinct x44 x4)) (?v_14 (= (f0_2 x41 x39) (f0_2 x3 x18))) (?v_48 (distinct (f0_2 x29 x7) (f0_2 x24 x30))) (?v_82 (= x38 (f0_2 x2 x15))) (?v_42 (f0_1 x29))) (let ((?v_100 (distinct ?v_42 ?v_42)) (?v_20 (f0_1 x44))) (let ((?v_51 (= ?v_20 (f0_1 x26))) (?v_76 (= (f0_1 x8) (f0_2 x40 x32))) (?v_23 (= (f0_2 x30 x36) (f0_2 x47 x34))) (?v_202 (= x40 ?v_8)) (?v_70 (distinct x43 x7)) (?v_31 (distinct (f0_2 x47 x20) (f0_1 x10))) (?v_56 (distinct x47 (f0_1 x14))) (?v_4 (= (f0_2 x11 x10) x20)) (?v_35 (= (f0_1 x21) (f0_1 x1))) (?v_146 (distinct (f0_1 x23) x48)) (?v_176 (= (f0_2 x9 x13) (f0_1 x47))) (?v_115 (= x24 x1)) (?v_119 (distinct (f0_1 x27) (f0_2 x46 x43))) (?v_149 (distinct (f0_1 x42) x44)) (?v_101 (distinct x25 (f0_2 x48 x39))) (?v_26 (distinct (f0_1 x49) (f0_2 x11 x17))) (?v_63 (distinct x37 (f0_2 x45 x13))) (?v_28 (= (f0_1 x22) x4)) (?v_92 (distinct (f0_1 x36) (f0_2 x41 x40))) (?v_81 (distinct x43 x27)) (?v_11 (distinct x39 x46)) (?v_52 (distinct (f0_2 x7 x46) (f0_1 x35))) (?v_39 (= (f0_2 x9 x20) (f0_2 x26 x24))) (?v_32 (= x18 (f0_2 x20 x11))) (?v_22 (distinct x42 ?v_42)) (?v_36 (= ?v_20 (f0_2 x13 x5))) (?v_116 (= (f0_2 x44 x1) (f0_1 x3))) (?v_135 (distinct (f0_1 x43) (f0_1 x41))) (?v_0 (distinct (f0_1 x46) x35)) (?v_57 (= (f0_1 x33) (f0_1 x34))) (?v_84 (= (f0_2 x19 x14) (f0_2 x41 x23))) (?v_230 (= ?v_19 ?v_20)) (?v_249 (distinct (f0_2 x27 x46) x29)) (?v_156 (= (f0_1 x2) x31))) (let ((?v_197 (not ?v_0)) (?v_1 (not P25)) (?v_27 (not ?v_71)) (?v_108 (not P45)) (?v_64 (not P27)) (?v_25 (not ?v_4)) (?v_175 (not ?v_26)) (?v_183 (not ?v_7)) (?v_154 (not P34)) (?v_37 (not ?v_146)) (?v_224 (not P2)) (?v_41 (not ?v_11)) (?v_244 (not ?v_202)) (?v_18 (not P18)) (?v_144 (not P11)) (?v_80 (not P14)) (?v_159 (not ?v_33)) (?v_17 (not P41)) (?v_113 (not P9)) (?v_66 (not ?v_14)) (?v_90 (not P16)) (?v_177 (not ?v_101)) (?v_199 (not P37)) (?v_74 (not P44)) (?v_67 (not P40)) (?v_123 (not ?v_22)) (?v_152 (not P46)) (?v_229 (not ?v_230)) (?v_24 (not ?v_135)) (?v_112 (not ?v_92)) (?v_222 (not P42)) (?v_160 (not P7)) (?v_107 (not ?v_145)) (?v_204 (not ?v_28)) (?v_128 (not P10)) (?v_45 (not P1)) (?v_200 (not ?v_48)) (?v_89 (not ?v_156)) (?v_111 (not ?v_84)) (?v_124 (not ?v_77)) (?v_186 (not P5)) (?v_94 (not ?v_32)) (?v_86 (not ?v_35)) (?v_49 (not ?v_36)) (?v_40 (not ?v_39)) (?v_134 (not P6)) (?v_198 (not ?v_100)) (?v_179 (not ?v_54)) (?v_43 (not P26)) (?v_171 (not P17)) (?v_106 (not P28)) (?v_209 (not P12)) (?v_53 (not P35)) (?v_218 (not ?v_52)) (?v_235 (not P29)) (?v_228 (not P32)) (?v_79 (not ?v_56)) (?v_233 (not ?v_176)) (?v_203 (not ?v_63)) (?v_98 (not P49)) (?v_168 (not ?v_65)) (?v_147 (not P15)) (?v_93 (not ?v_76)) (?v_136 (not P20)) (?v_155 (not ?v_82)) (?v_103 (not ?v_81)) (?v_212 (not P23)) (?v_105 (not ?v_116)) (?v_242 (not ?v_104)) (?v_161 (not P13)) (?v_248 (not P0)) (?v_137 (not P38)) (?v_142 (not ?v_249)) (?v_236 (not ?v_31))) (let ((?v_226 (or ?v_236 ?v_108)) (?v_215 (not P39)) (?v_157 (not ?v_115)) (?v_246 (not ?v_51)) (?v_140 (not P19)) (?v_201 (not ?v_150)) (?v_141 (not ?v_120)) (?v_194 (not P3)) (?v_196 (not ?v_119)) (?v_247 (not P33)) (?v_206 (not ?v_50)) (?v_216 (not ?v_252)) (?v_165 (not P4)) (?v_148 (not P48)) (?v_178 (not P47)) (?v_181 (not ?v_61)) (?v_239 (not P43)) (?v_213 (not ?v_23)) (?v_231 (not ?v_170)) (?v_189 (not P30)) (?v_188 (not P21)) (?v_240 (not P22)) (?v_223 (not ?v_70)) (?v_245 (not P36)) (?v_243 (not ?v_72)) (?v_251 (or ?v_49 ?v_64)) (?v_255 (not P24)) (?v_253 (not P31)) (?v_130 (distinct (+ (* 2 x15) (* 16 x27) (* 3 x10)) 0))) (let ((?v_6 (not ?v_130)) (?v_3 (<= (+ (* 12 x14) (* 23 x46) x14) 11))) (let ((?v_117 (not ?v_3)) (?v_221 (<= (- (* 17 x17) (* 26 x23)) 10))) (let ((?v_131 (not ?v_221)) (?v_180 (<= (- (* 16 x37) (* 19 x32)) 3))) (let ((?v_193 (not ?v_180)) (?v_214 (< (- (+ (* (- 22) x13) (* 26 x21)) (* 19 x17)) (- 9)))) (let ((?v_9 (not ?v_214)) (?v_29 (<= (+ (* 6 x1) (* 22 x6)) (- 24))) (?v_13 (< (- (+ (* 24 x46) (* 17 x44)) (* 25 x23)) (- 15))) (?v_127 (<= (- (+ (* (- 9) x1) (* 5 x8)) 0) (- 10)))) (let ((?v_88 (not ?v_127)) (?v_2 (< (- (+ (* (- 23) x44) (* 27 x24)) 0) (- 9)))) (let ((?v_38 (not ?v_2)) (?v_5 (<= (+ (- (* (- 2) x25) ?v_34) (* 8 x26)) 13)) (?v_46 (< (- 0 (* 24 x28)) (- 16))) (?v_58 (< (- (+ (* (- 18) x2) x37) (* 8 x20)) 11)) (?v_16 (< (- (* 27 x18) (* 8 x4)) (- 1))) (?v_12 (= (- (+ (* 3 x11) (* 23 x6)) (* 26 x8)) (- 27))) (?v_10 (<= (- (- (* 11 x17) (* 21 x44)) (* 27 x31)) (- 9)))) (let ((?v_44 (not ?v_10)) (?v_47 (<= (+ (- 0 (* 27 x8)) (* 22 x49)) (- 13)))) (let ((?v_227 (not ?v_47)) (?v_164 (< (- (- (* 8 x6) (* 9 x26)) (* 3 x8)) (- 9)))) (let ((?v_241 (not ?v_164)) (?v_102 (<= (- (+ (* (- 4) x27) (* 14 x26)) (* 8 x8)) (- 14))) (?v_172 (distinct (+ (- (* (- 21) x39) (* 21 x16)) (* 20 x8)) 25))) (let ((?v_192 (or ?v_172 ?v_6)) (?v_85 (< (- (+ (* 24 x35) (* 24 x3)) (* 26 x24)) (- 17))) (?v_21 (<= (- (* (- 22) x17) (* 24 x21)) 23)) (?v_95 (<= (- (+ (* 9 x9) (* 12 x41)) (* 22 x46)) (- 26))) (?v_68 (<= (- (+ (* (- 24) x22) ?v_15) (* 16 x17)) 27)) (?v_78 (<= (+ (- (* (- 14) x24) ?v_15) (* 14 x9)) 14)) (?v_109 (not ?v_16))) (let ((?v_182 (not ?v_21)) (?v_30 (not ?v_12)) (?v_143 (<= (+ (- (* 16 x35) (* 27 x29)) (* 26 x45)) (- 18))) (?v_125 (< (- (- 0 (* 2 x26)) (* 7 x35)) (- 9))) (?v_73 (<= (- (- (* (- 7) x2) (* 18 x20)) (* 2 x48)) (- 7)))) (let ((?v_62 (not ?v_73)) (?v_75 (= (+ (* (- 16) x30) (* 4 x3) (* 26 x9)) 22)) (?v_59 (<= (- (- (* 4 x4) ?v_34) (* 12 x20)) (- 4)))) (let ((?v_232 (not ?v_59)) (?v_91 (<= (+ (* (- 11) x27) (* 24 x33) (* 27 x49)) 24))) (let ((?v_60 (not ?v_91)) (?v_122 (= (+ (* (- 8) x39) (* 11 x26) (* 13 x12)) 10)) (?v_69 (not ?v_46)) (?v_99 (distinct (+ (* (- 24) x7) (* 10 x47) (* 10 x11)) (- 5)))) (let ((?v_110 (not ?v_99)) (?v_55 (not ?v_13)) (?v_163 (< (- (+ (* (- 15) x6) (* 26 x33)) (* 12 x42)) (- 7))) (?v_139 (= (+ (- (* (- 19) x26) x40) (* 7 x25)) (- 8))) (?v_97 (not ?v_58)) (?v_190 (<= (+ (* (- 13) x19) (* 27 x27) (* 22 x7)) 25)) (?v_114 (= (+ (- (* 18 x21) (* 7 x47)) (* 23 x2)) (- 3))) (?v_211 (= (- (+ (* (- 5) x41) (* 6 x4)) (* 11 x29)) 0))) (let ((?v_83 (not ?v_211)) (?v_96 (not ?v_75)) (?v_153 (<= (+ (* (- 15) x37) (* 25 x3) (* 15 x29)) 2)) (?v_151 (distinct (- (- (* (- 4) x39) (* 3 x17)) (* 22 x31)) 7))) (let ((?v_118 (not ?v_151)) (?v_207 (not ?v_5)) (?v_121 (< (+ (- (* (- 25) x36) (* 24 x27)) (* 14 x41)) (- 24))) (?v_158 (= (+ (- (* (- 17) x25) (* 17 x47)) (* 13 x45)) 17)) (?v_187 (not ?v_95)) (?v_217 (<= (- (- (* 5 x25) (* 3 x18)) (* 6 x11)) (- 7)))) (let ((?v_138 (not ?v_217)) (?v_225 (not ?v_102)) (?v_169 (not ?v_29)) (?v_220 (< (- (- (* (- 20) x19) (* 7 x22)) 0) 3))) (let ((?v_126 (not ?v_220)) (?v_208 (not ?v_114)) (?v_129 (< (- (+ (* (- 5) x11) x27) (* 4 x33)) (- 14))) (?v_195 (not ?v_122)) (?v_133 (not ?v_125)) (?v_132 (< (- (+ (* (- 9) x16) (* 4 x21)) (* 17 x41)) (- 21))) (?v_237 (not ?v_78)) (?v_191 (<= (+ (- (* (- 1) x32) (* 7 x28)) (* 3 x39)) (- 12)))) (let ((?v_167 (not ?v_132)) (?v_174 (not ?v_68)) (?v_184 (not ?v_143)) (?v_166 (not ?v_139)) (?v_162 (not ?v_153)) (?v_173 (not ?v_158)) (?v_185 (not ?v_172)) (?v_210 (not ?v_163))) (let ((?v_234 (or ?v_184 P10)) (?v_205 (not ?v_121)) (?v_250 (not ?v_129)) (?v_219 (not ?v_191)) (?v_238 (not ?v_190)) (?v_254 (not ?v_85))) (and (and (and (and (and (and (and (and (and (and (and (and (and (and (and (and (and (and (and (and (and (and (and (and (and (and (and (and (and (and (and (and (and (and (and (and (and (and (and (and (and (and (and (and (and (and (and (and (and (and (and (and (and (and (and (and (and (and (and (and (and (and (and (and (and (and (and (and (and (and (and (and (and (and (and (and (and (and (and (and (and (and (and (and (and (and (and (and (and (and (and (and (and (and (and (and (and (and (and (and (and (and (and (and (and (and (and (and (and (and (and (and (and (and (and (and (and (and (and (and (and (and (and (and (and (and (and (and (and (and (and (and (and (and (and (and (and (and (and (and (and (and (and (and (and (and (and (and (and (and (and (and (and (and (and (and (and (and (and (and (and (and (and (and (and (and (and (and (and (and (and (and (and (and (and (and (and (and (and (and (and (and (and (and (and (and (and (and (and (and (and (and (and (and (and (and (and (and (and (and (and (and (and (and (and (and (and (and (and (and (and (and (and (and (and (and (and (and (and (and (and (and (and (and (and (and (and (and (and (and (and (and (and (and (and (and (and (and (and (and (and (and (and (and (and (and (and (and (and (and (and (and (and (and (and (and (and (and (and (and (and (and (and (and (and (and (and (and (and (and (and (and (and (and (and (and (and (and (and (and (and (and (and (and (and (and (and (and (and (and (and (and (and (and (and (and (and (and (and (and (and (and (and (and (and (and (and (and (and (and (and (and (and (and (and (and (and (and (and (and (and (and (and (and (and (and (and (and (and (and (and (and (and (and (and (and (and (and (and (and (and (and (and (and (and (and (and (and (and (and (and (and (and (and (and (and (and (and (and (and (and (and (and (and (and (and (and (and (and (and (and (and (and (and (and (and (and (and (and (and (and (and (and (and (and (and (and (and (and (and (and (and (and (and (and (and (and (and (and (and (and (and (and (and (and (and (and (and (and (and (and (and (and (and (and (and (and (and (and (and (and (and (and (and (and (and (and (and (and (and (and (and (and (and (and (and (and (and (and (and (and (and (and (and (and (and (and (and (and (and (and (and (and (and (and (and (and (and (and (and (and (and (and (and (and (and (and (and (and (and (and (and (and (and (and (and (and (and (and (and (and (and (and (and (and (and (and (and (and (and (and (and (and (and (and (and (and (and (and (and (and (and (and (and (and (and (and (and (and (and (and (and (and (and (and (and (and (and (and (and (and (and (and (and (and (and (and (and (and (and (and (and (and (and (and (and (and (and (and (and (and (and (and (and (and (and (and (and (and (and (and (and (and (and (and (and (and (and (and (and (and (and (and (and (and (and (and (and (and (and (and (and (and (and (and (and (and (and (and (and (and (and (and (and (and (and (and (and (and (and (and (and (and (and (and (and (and (and (and (or (or P21 ?v_4) P33) (or (or ?v_9 ?v_115) ?v_29)) (or (or P7 ?v_197) P40)) (or (or ?v_0 P8) ?v_13)) (or (or ?v_1 ?v_88) P34)) (or (or ?v_32 ?v_1) ?v_2)) (or (or ?v_6 ?v_27) ?v_108)) (or (or ?v_38 ?v_5) ?v_64)) (or (or ?v_3 ?v_170) ?v_46)) (or (or ?v_58 ?v_16) ?v_3)) (or (or ?v_28 P48) ?v_12)) (or (or ?v_44 ?v_25) P26)) (or (or P1 ?v_65) P31)) (or (or ?v_175 P3) ?v_227)) (or (or ?v_241 P22) ?v_5)) (or (or ?v_102 ?v_70) P19)) (or (or ?v_183 ?v_76) P5)) (or (or ?v_154 ?v_37) ?v_224)) (or ?v_192 ?v_14)) (or (or ?v_7 ?v_117) P39)) (or (or ?v_41 P22) P44)) (or (or P14 ?v_244) ?v_85)) (or (or ?v_9 P38) ?v_18)) (or (or ?v_144 ?v_10) ?v_80)) (or (or ?v_11 ?v_12) P0)) (or (or ?v_159 P38) ?v_120)) (or (or ?v_35 ?v_23) ?v_21)) (or (or P16 ?v_17) ?v_95)) (or (or ?v_13 ?v_113) ?v_51)) (or (or ?v_66 ?v_68) ?v_11)) (or (or P33 ?v_78) P27)) (or (or ?v_90 P9) ?v_109)) (or (or P38 ?v_177) ?v_56)) (or (or P5 ?v_199) P45)) (or (or ?v_74 ?v_17) P25)) (or (or ?v_67 ?v_123) P27)) (or (or ?v_14 P10) ?v_152)) (or (or P27 ?v_31) ?v_81)) (or (or P40 ?v_61) ?v_18)) (or (or ?v_229 ?v_36) ?v_182)) (or (or ?v_24 ?v_22) ?v_52)) (or (or ?v_112 ?v_23) ?v_24)) (or (or ?v_222 ?v_30) ?v_13)) (or (or ?v_160 ?v_25) P6)) (or (or ?v_26 ?v_107) ?v_27)) (or (or ?v_204 ?v_9) P18)) (or (or P15 ?v_143) P16)) (or (or ?v_128 ?v_29) ?v_6)) (or (or ?v_30 ?v_72) ?v_23)) (or (or ?v_57 ?v_125) ?v_45)) (or (or ?v_62 ?v_200) ?v_39)) (or (or ?v_13 ?v_89) ?v_111)) (or (or P48 ?v_124) ?v_186)) (or (or ?v_31 P11) ?v_75)) (or (or ?v_94 ?v_33) ?v_232)) (or (or ?v_5 ?v_86) ?v_49)) (or (or ?v_37 ?v_119) ?v_38)) (or (or (not ?v_149) ?v_40) ?v_134)) (or (or P17 ?v_40) ?v_41)) (or (or ?v_198 ?v_28) ?v_60)) (or (or ?v_122 ?v_179) ?v_43)) (or (or P43 ?v_43) ?v_44)) (or (or ?v_63 ?v_45) P44)) (or (or ?v_11 ?v_131) ?v_69)) (or (or P38 ?v_47) ?v_110)) (or (or ?v_48 ?v_171) P34)) (or (or ?v_22 ?v_106) ?v_49)) (or (or ?v_50 ?v_55) P33)) (or (or ?v_49 ?v_163) ?v_50)) (or (or ?v_139 ?v_51) ?v_14)) (or (or ?v_209 ?v_14) ?v_53)) (or (or ?v_218 P35) ?v_235)) (or (or ?v_33 P27) ?v_53)) (or (or ?v_54 P29) ?v_55)) (or (or ?v_228 ?v_79) P24)) (or (or ?v_49 ?v_43) ?v_57)) (or (or P2 ?v_233) ?v_97)) (or (or ?v_82 P10) ?v_59)) (or (or P22 ?v_60) P41)) (or (or P21 ?v_0) P9)) (or (or ?v_30 ?v_48) ?v_190)) (or (or ?v_61 P27) ?v_54)) (or (or ?v_62 ?v_203) ?v_98)) (or (or ?v_114 P15) ?v_64)) (or (or ?v_168 ?v_147) ?v_66)) (or (or ?v_67 ?v_68) ?v_69)) (or (or ?v_70 ?v_49) P17)) (or (or ?v_71 ?v_72) ?v_73)) (or (or ?v_23 ?v_37) ?v_74)) (or (or ?v_83 ?v_96) ?v_93)) (or (or P13 ?v_56) ?v_32)) (or (or ?v_21 ?v_5) ?v_16)) (or (or P27 ?v_77) ?v_78)) (or (or ?v_79 ?v_31) ?v_80)) (or (or ?v_153 ?v_81) P12)) (or (or ?v_136 ?v_155) P11)) (or (or ?v_57 ?v_10) ?v_72)) (or (or ?v_57 ?v_83) P28)) (or (or ?v_77 ?v_60) ?v_2)) (or (or P37 ?v_103) P33)) (or (or ?v_62 ?v_87) ?v_72)) (or (or ?v_84 ?v_58) ?v_45)) (or (or ?v_3 ?v_10) ?v_85)) (or (or P33 ?v_86) ?v_38)) (or (or ?v_10 ?v_87) ?v_30)) (or (or P13 ?v_88) ?v_118)) (or (or ?v_89 P15) ?v_55)) (or (or ?v_70 ?v_73) P11)) (or (or ?v_90 ?v_212) ?v_25)) (or (or P40 ?v_91) ?v_3)) (or (or ?v_92 P6) ?v_45)) (or (or ?v_25 ?v_93) P36)) (or (or P14 ?v_94) ?v_105)) (or (or P11 ?v_61) ?v_180)) (or (or ?v_207 ?v_95) ?v_96)) (or (or ?v_97 P46) ?v_82)) (or (or ?v_121 ?v_0) ?v_7)) (or (or ?v_98 ?v_16) ?v_99)) (or (or ?v_90 P17) P9)) (or (or ?v_31 ?v_100) ?v_71)) (or (or ?v_82 ?v_92) ?v_101)) (or (or P10 P48) ?v_102)) (or (or ?v_18 ?v_158) ?v_242)) (or (or ?v_187 ?v_161) P25)) (or (or ?v_248 ?v_72) ?v_44)) (or (or ?v_54 ?v_75) ?v_73)) (or (or ?v_137 ?v_138) P13)) (or (or ?v_57 ?v_103) ?v_225)) (or (or ?v_89 ?v_169) ?v_104)) (or (or ?v_105 ?v_106) ?v_107)) (or (or P44 ?v_142) ?v_46)) (or ?v_226 ?v_65)) (or (or ?v_30 ?v_109) P22)) (or (or ?v_110 ?v_111) ?v_112)) (or (or P34 ?v_39) ?v_101)) (or (or ?v_126 ?v_113) ?v_40)) (or (or P40 P6) ?v_208)) (or (or ?v_22 ?v_63) ?v_215)) (or (or ?v_77 ?v_157) ?v_246)) (or (or ?v_116 ?v_100) ?v_41)) (or (or ?v_24 ?v_140) P1)) (or (or ?v_201 ?v_117) ?v_118)) (or (or ?v_119 ?v_129) ?v_141)) (or (or ?v_89 ?v_121) ?v_76)) (or (or ?v_114 ?v_82) ?v_97)) (or (or ?v_4 ?v_195) P11)) (or (or P7 P47) ?v_60)) (or (or ?v_123 ?v_100) ?v_27)) (or (or ?v_124 P29) ?v_133)) (or (or ?v_126 ?v_132) ?v_96)) (or (or ?v_127 ?v_41) ?v_128)) (or (or ?v_237 ?v_124) ?v_191)) (or (or ?v_194 ?v_129) ?v_130)) (or (or ?v_131 ?v_77) ?v_167)) (or (or ?v_196 ?v_2) P1)) (or (or ?v_18 ?v_247) ?v_174)) (or (or P12 ?v_17) ?v_206)) (or (or ?v_91 ?v_133) ?v_104)) (or (or ?v_118 ?v_44) P1)) (or (or ?v_73 ?v_216) P37)) (or (or ?v_102 ?v_90) ?v_134)) (or (or ?v_115 ?v_135) ?v_136)) (or (or P23 ?v_137) ?v_90)) (or (or ?v_138 ?v_139) P7)) (or (or ?v_140 ?v_141) ?v_142)) (or (or ?v_184 ?v_144) ?v_145)) (or (or P8 ?v_4) ?v_92)) (or (or ?v_146 ?v_120) ?v_104)) (or (or ?v_73 ?v_165) ?v_107)) (or (or P39 P18) ?v_0)) (or (or ?v_22 ?v_148) ?v_147)) (or (or P21 P22) ?v_148)) (or (or ?v_14 ?v_121) ?v_135)) (or (or ?v_6 ?v_53) ?v_166)) (or (or ?v_149 ?v_1) P18)) (or (or ?v_150 P35) ?v_85)) (or (or ?v_151 ?v_152) ?v_162)) (or (or ?v_84 ?v_105) ?v_154)) (or (or ?v_155 ?v_126) ?v_112)) (or (or ?v_156 ?v_157) ?v_26)) (or (or P38 ?v_149) ?v_173)) (or (or ?v_159 ?v_63) ?v_52)) (or (or ?v_160 ?v_131) ?v_102)) (or (or ?v_81 P21) ?v_83)) (or (or ?v_95 ?v_94) ?v_87)) (or (or ?v_178 ?v_85) ?v_79)) (or (or ?v_28 ?v_103) ?v_161)) (or (or ?v_162 ?v_163) P14)) (or (or ?v_78 ?v_56) ?v_117)) (or (or P16 ?v_164) ?v_82)) (or (or ?v_55 P20) P35)) (or (or ?v_157 ?v_128) ?v_48)) (or (or ?v_106 ?v_165) ?v_166)) (or (or ?v_5 P8) ?v_167)) (or (or ?v_14 ?v_86) P21)) (or (or ?v_168 ?v_169) ?v_140)) (or (or ?v_74 ?v_170) ?v_171)) (or (or P8 ?v_185) P21)) (or (or ?v_129 ?v_169) ?v_141)) (or (or ?v_173 ?v_98) ?v_108)) (or (or P4 P8) ?v_172)) (or (or ?v_62 ?v_181) ?v_174)) (or (or ?v_168 P49) P8)) (or (or ?v_30 ?v_7) ?v_239)) (or (or ?v_25 P40) P48)) (or (or P9 ?v_128) ?v_55)) (or (or ?v_210 P46) ?v_3)) (or (or ?v_121 ?v_175) ?v_126)) (or (or ?v_22 P36) ?v_83)) (or (or ?v_147 ?v_176) ?v_146)) (or (or ?v_117 ?v_71) ?v_118)) (or (or P27 ?v_108) ?v_177)) (or (or P20 ?v_178) ?v_179)) (or (or ?v_72 ?v_55) ?v_94)) (or (or ?v_59 ?v_176) ?v_180)) (or (or ?v_181 ?v_182) P6)) (or (or ?v_25 ?v_183) ?v_26)) (or ?v_234 ?v_9)) (or (or ?v_86 P46) ?v_140)) (or (or P46 ?v_123) ?v_213)) (or (or P14 ?v_165) ?v_97)) (or (or ?v_161 P31) ?v_152)) (or (or ?v_231 ?v_53) ?v_16)) (or (or ?v_41 ?v_39) P11)) (or (or P30 ?v_189) ?v_164)) (or (or P24 P47) ?v_185)) (or (or ?v_115 ?v_107) ?v_85)) (or (or ?v_11 ?v_80) ?v_65)) (or (or ?v_154 ?v_96) ?v_168)) (or (or ?v_188 ?v_43) ?v_205)) (or (or ?v_186 ?v_91) ?v_88)) (or (or ?v_87 ?v_187) ?v_112)) (or (or ?v_240 ?v_188) ?v_6)) (or (or ?v_223 ?v_169) ?v_132)) (or (or ?v_171 ?v_117) ?v_26)) (or (or ?v_45 ?v_189) ?v_190)) (or (or ?v_193 ?v_25) ?v_191)) (or ?v_192 ?v_47)) (or (or ?v_33 P18) ?v_90)) (or (or ?v_53 ?v_78) ?v_123)) (or (or ?v_193 ?v_54) ?v_194)) (or (or ?v_195 ?v_4) ?v_174)) (or (or P25 ?v_4) ?v_118)) (or (or ?v_154 ?v_122) ?v_186)) (or (or ?v_112 P42) ?v_77)) (or (or ?v_56 ?v_196) ?v_3)) (or (or ?v_9 ?v_25) ?v_167)) (or (or ?v_135 ?v_137) ?v_197)) (or (or ?v_198 ?v_86) ?v_142)) (or (or P30 ?v_250) ?v_158)) (or (or ?v_199 P15) ?v_88)) (or (or ?v_200 ?v_14) ?v_201)) (or (or P34 ?v_190) P36)) (or (or ?v_131 ?v_140) ?v_128)) (or (or ?v_75 P5) ?v_83)) (or (or ?v_137 ?v_189) ?v_202)) (or (or ?v_156 ?v_37) ?v_203)) (or (or ?v_116 ?v_92) ?v_1)) (or (or P33 ?v_204) ?v_163)) (or (or ?v_205 ?v_115) ?v_107)) (or (or ?v_121 ?v_185) ?v_143)) (or (or ?v_116 P7) ?v_61)) (or (or ?v_80 ?v_245) ?v_76)) (or (or ?v_206 P35) ?v_7)) (or (or ?v_152 ?v_125) ?v_110)) (or (or P48 ?v_67) ?v_169)) (or (or ?v_93 ?v_197) ?v_207)) (or (or ?v_90 P11) ?v_68)) (or (or ?v_66 ?v_124) ?v_208)) (or (or ?v_103 ?v_209) ?v_208)) (or (or ?v_210 ?v_163) P5)) (or (or P24 ?v_75) ?v_80)) (or (or P5 ?v_173) P38)) (or (or ?v_211 ?v_9) P10)) (or (or P28 ?v_144) ?v_5)) (or (or ?v_28 ?v_125) ?v_135)) (or (or ?v_70 ?v_166) ?v_85)) (or (or P31 ?v_54) ?v_1)) (or (or ?v_90 ?v_94) ?v_212)) (or (or ?v_35 ?v_115) ?v_32)) (or (or ?v_213 ?v_169) ?v_83)) (or (or P24 ?v_32) ?v_133)) (or (or (not P8) ?v_214) ?v_213)) (or (or ?v_105 ?v_215) ?v_90)) (or (or ?v_148 ?v_154) ?v_140)) (or (or ?v_111 ?v_216) ?v_208)) (or (or ?v_129 P4) ?v_79)) (or (or ?v_68 ?v_70) ?v_12)) (or (or ?v_219 ?v_84) ?v_21)) (or (or ?v_25 ?v_95) ?v_215)) (or (or ?v_115 ?v_152) ?v_159)) (or (or ?v_130 P48) P4)) (or (or ?v_3 P19) ?v_25)) (or (or P44 ?v_189) P26)) (or (or ?v_53 ?v_217) ?v_81)) (or (or P39 ?v_39) ?v_143)) (or (or ?v_204 P43) ?v_218)) (or (or ?v_172 ?v_108) ?v_219)) (or (or P40 ?v_139) ?v_162)) (or (or P18 P18) ?v_153)) (or (or P47 P24) ?v_68)) (or (or ?v_191 P15) ?v_109)) (or (or ?v_101 ?v_11) ?v_210)) (or (or P1 ?v_207) ?v_220)) (or (or ?v_78 ?v_136) P37)) (or (or ?v_221 P22) ?v_44)) (or (or ?v_38 ?v_211) ?v_56)) (or (or ?v_26 ?v_36) ?v_222)) (or (or ?v_67 ?v_101) ?v_124)) (or (or ?v_57 ?v_117) ?v_28)) (or (or ?v_13 P47) ?v_175)) (or (or ?v_87 ?v_66) ?v_127)) (or (or ?v_125 P1) ?v_38)) (or (or ?v_220 ?v_185) ?v_29)) (or (or P32 ?v_131) ?v_197)) (or (or ?v_173 ?v_223) P37)) (or (or ?v_115 ?v_132) ?v_187)) (or (or ?v_162 ?v_191) ?v_69)) (or (or ?v_151 P12) ?v_142)) (or (or ?v_151 ?v_71) ?v_145)) (or (or P32 ?v_178) ?v_59)) (or (or ?v_224 ?v_125) ?v_225)) (or (or ?v_118 ?v_27) P25)) (or ?v_226 ?v_99)) (or (or ?v_181 ?v_161) ?v_142)) (or (or P11 ?v_191) ?v_50)) (or (or ?v_2 ?v_227) ?v_196)) (or (or ?v_193 ?v_139) ?v_85)) (or (or ?v_29 ?v_153) ?v_86)) (or (or ?v_67 ?v_197) ?v_228)) (or (or P31 ?v_99) ?v_154)) (or (or ?v_7 ?v_64) ?v_229)) (or (or P12 ?v_27) ?v_159)) (or (or ?v_35 ?v_113) ?v_225)) (or (or P5 P38) ?v_95)) (or (or ?v_179 P40) ?v_135)) (or (or ?v_230 ?v_152) P28)) (or (or ?v_231 ?v_120) ?v_243)) (or (or P27 ?v_232) ?v_113)) (or (or P7 ?v_52) ?v_146)) (or (or ?v_219 P28) ?v_144)) (or (or P1 ?v_185) ?v_68)) (or (or ?v_32 ?v_124) ?v_233)) (or (or ?v_64 ?v_101) ?v_115)) (or ?v_234 P44)) (or (or ?v_218 ?v_89) ?v_12)) (or (or ?v_179 ?v_182) P2)) (or (or ?v_235 ?v_27) ?v_22)) (or (or ?v_77 ?v_168) ?v_67)) (or (or ?v_179 P26) ?v_204)) (or (or ?v_1 ?v_84) ?v_154)) (or (or ?v_99 ?v_238) ?v_56)) (or (or ?v_174 P30) ?v_236)) (or (or ?v_162 ?v_122) ?v_237)) (or (or P31 P16) ?v_195)) (or (or ?v_218 ?v_81) ?v_91)) (or (or ?v_66 ?v_134) ?v_103)) (or (or P13 ?v_213) ?v_198)) (or (or P26 ?v_206) ?v_22)) (or (or ?v_62 ?v_210) ?v_49)) (or (or ?v_1 ?v_2) ?v_208)) (or (or (not ?v_57) ?v_153) ?v_48)) (or (or ?v_92 ?v_49) P11)) (or ?v_251 ?v_182)) (or (or ?v_111 P19) ?v_177)) (or (or ?v_18 ?v_189) ?v_113)) (or (or ?v_39 P8) ?v_16)) (or (or ?v_218 ?v_156) ?v_193)) (or (or ?v_125 P45) P47)) (or (or ?v_3 ?v_185) ?v_38)) (or (or ?v_65 P49) P29)) (or (or ?v_119 ?v_179) ?v_123)) (or (or ?v_31 P9) ?v_228)) (or (or ?v_143 P34) ?v_218)) (or (or ?v_58 ?v_238) ?v_239)) (or (or P27 P18) ?v_62)) (or (or ?v_164 ?v_29) ?v_76)) (or (or ?v_169 ?v_36) P0)) (or (or ?v_173 ?v_93) ?v_254)) (or (or ?v_127 ?v_169) ?v_119)) (or (or ?v_36 ?v_142) P17)) (or (or ?v_238 ?v_223) ?v_160)) (or (or ?v_240 ?v_90) ?v_78)) (or (or ?v_26 P5) ?v_140)) (or (or ?v_86 ?v_40) P5)) (or (or ?v_143 ?v_141) ?v_108)) (or (or ?v_65 P15) ?v_187)) (or (or ?v_105 ?v_65) P30)) (or (or ?v_105 ?v_148) ?v_184)) (or (or ?v_89 P34) ?v_17)) (or (or ?v_184 ?v_133) ?v_138)) (or (or ?v_95 P39) ?v_214)) (or (or ?v_241 P3) ?v_46)) (or (or ?v_47 ?v_135) ?v_242)) (or (or P10 ?v_82) ?v_201)) (or (or ?v_190 ?v_30) ?v_61)) (or (or ?v_106 P45) P1)) (or (or ?v_44 ?v_72) ?v_93)) (or (or ?v_233 ?v_102) ?v_79)) (or (or ?v_126 ?v_12) ?v_32)) (or (or ?v_176 P44) ?v_255)) (or (or P34 ?v_236) ?v_225)) (or (or ?v_24 ?v_131) ?v_243)) (or (or ?v_89 P33) ?v_111)) (or (or P5 ?v_152) ?v_41)) (or (or ?v_62 P38) P24)) (or (or ?v_172 ?v_102) ?v_142)) (or (or ?v_204 P49) ?v_101)) (or (or ?v_88 P25) ?v_114)) (or (or ?v_88 ?v_66) ?v_16)) (or (or ?v_91 ?v_75) ?v_7)) (or (or ?v_125 ?v_102) ?v_49)) (or (or ?v_244 ?v_21) ?v_13)) (or (or ?v_244 ?v_81) P44)) (or (or ?v_45 ?v_75) ?v_30)) (or (or ?v_124 P15) ?v_208)) (or (or ?v_171 ?v_245) ?v_94)) (or (or P32 ?v_119) ?v_209)) (or (or ?v_68 ?v_28) ?v_97)) (or (or ?v_110 ?v_91) ?v_136)) (or (or ?v_115 ?v_120) ?v_64)) (or (or ?v_117 ?v_85) ?v_191)) (or (or ?v_81 ?v_107) ?v_77)) (or (or ?v_197 ?v_246) ?v_32)) (or (or ?v_161 ?v_199) ?v_227)) (or (or ?v_178 P38) P36)) (or (or ?v_89 P41) ?v_47)) (or (or ?v_138 ?v_22) ?v_37)) (or (or ?v_31 ?v_92) ?v_180)) (or (or ?v_129 P15) P21)) (or (or ?v_13 ?v_105) ?v_162)) (or (or ?v_247 ?v_157) ?v_125)) (or (or P8 P10) ?v_80)) (or (or ?v_92 ?v_198) P30)) (or (or ?v_96 ?v_137) P1)) (or (or ?v_85 ?v_92) ?v_239)) (or (or ?v_155 ?v_57) ?v_154)) (or (or ?v_173 ?v_146) P6)) (or (or P42 ?v_247) ?v_26)) (or (or P9 P44) ?v_98)) (or (or P18 P44) ?v_29)) (or (or ?v_44 P39) ?v_82)) (or (or ?v_137 ?v_144) ?v_207)) (or (or ?v_64 ?v_203) ?v_248)) (or (or ?v_39 ?v_166) P37)) (or (or ?v_245 ?v_232) ?v_190)) (or (or ?v_113 ?v_85) ?v_126)) (or (or P3 ?v_249) P30)) (or (or P25 P23) ?v_64)) (or (or ?v_179 P47) ?v_169)) (or (or ?v_117 P31) P20)) (or (or ?v_227 ?v_90) ?v_133)) (or (or P33 ?v_169) ?v_246)) (or (or ?v_33 ?v_99) ?v_57)) (or (or ?v_102 ?v_120) ?v_189)) (or (or ?v_220 ?v_215) P28)) (or (or P15 ?v_65) ?v_216)) (or (or ?v_186 P16) ?v_65)) (or (or ?v_65 ?v_231) ?v_32)) (or (or ?v_95 ?v_13) ?v_198)) (or (or ?v_72 ?v_202) ?v_232)) (or (or ?v_44 P2) ?v_23)) (or (or ?v_66 ?v_123) ?v_16)) (or (or ?v_149 ?v_56) ?v_247)) (or (or ?v_119 ?v_233) ?v_89)) (or (or P48 ?v_100) ?v_158)) (or (or ?v_219 ?v_235) P42)) (or (or ?v_68 ?v_171) P27)) (or (or ?v_132 ?v_129) ?v_11)) (or (or ?v_184 ?v_176) ?v_32)) (or (or ?v_56 ?v_194) ?v_204)) (or (or ?v_69 P32) P33)) (or (or ?v_75 ?v_40) P42)) (or (or ?v_164 ?v_99) ?v_179)) (or (or ?v_253 ?v_197) P21)) (or (or P31 P15) ?v_153)) (or (or ?v_32 ?v_180) P34)) (or (or ?v_118 ?v_148) ?v_164)) (or (or P22 ?v_156) P5)) (or (or ?v_37 ?v_201) P8)) (or (or ?v_137 ?v_94) ?v_28)) (or (or ?v_5 ?v_60) ?v_211)) (or (or ?v_103 ?v_153) ?v_51)) (or (or P47 ?v_51) ?v_128)) (or (or ?v_128 ?v_147) ?v_68)) (or (or ?v_73 ?v_91) ?v_207)) (or (or ?v_216 ?v_36) ?v_235)) (or (or ?v_190 ?v_11) ?v_127)) (or (or ?v_250 ?v_134) P48)) (or (or ?v_221 P37) ?v_60)) (or (or ?v_155 ?v_24) ?v_100)) (or (or P12 ?v_176) ?v_146)) (or (or ?v_132 ?v_134) ?v_196)) (or (or ?v_77 ?v_135) P31)) (or ?v_251 ?v_239)) (or (or ?v_238 ?v_245) ?v_7)) (or (or ?v_99 ?v_182) ?v_148)) (or (or ?v_76 ?v_21) ?v_0)) (or (or ?v_237 ?v_123) ?v_17)) (or (or P10 ?v_250) ?v_148)) (or (or ?v_174 ?v_64) ?v_89)) (or (or ?v_53 ?v_66) ?v_224)) (or (or ?v_64 ?v_60) P12)) (or (or P35 P36) ?v_170)) (or (or ?v_159 ?v_188) ?v_200)) (or (or P31 ?v_200) ?v_178)) (or (or ?v_120 ?v_207) P46)) (or (or P32 ?v_218) ?v_241)) (or (or P17 P7) ?v_33)) (or (or ?v_220 ?v_245) ?v_160)) (or (or ?v_183 P2) P39)) (or (or ?v_250 ?v_219) P18)) (or (or ?v_136 ?v_174) P26)) (or (or ?v_116 ?v_199) ?v_148)) (or (or ?v_96 P17) ?v_27)) (or (or ?v_249 P13) ?v_76)) (or (or ?v_140 ?v_223) ?v_252)) (or (or ?v_56 ?v_159) ?v_116)) (or (or ?v_92 ?v_253) ?v_10)) (or (or ?v_56 ?v_31) ?v_170)) (or (or ?v_4 ?v_2) ?v_250)) (or (or ?v_45 ?v_216) ?v_24)) (or (or ?v_150 ?v_49) P42)) (or (or ?v_190 ?v_89) ?v_184)) (or (or ?v_243 ?v_39) ?v_3)) (or (or ?v_166 ?v_238) ?v_2)) (or (or ?v_66 P41) ?v_26)) (or (or ?v_224 ?v_242) ?v_161)) (or (or ?v_138 ?v_11) ?v_148)) (or (or ?v_3 P18) ?v_196)) (or (or ?v_173 ?v_188) ?v_96)) (or (or ?v_140 P33) P44)) (or (or ?v_57 ?v_31) ?v_213)) (or (or ?v_167 ?v_31) P7)) (or (or P40 P42) ?v_248)) (or (or ?v_77 ?v_68) ?v_224)) (or (or ?v_1 ?v_188) ?v_126)) (or (or ?v_152 ?v_3) ?v_85)) (or (or ?v_80 ?v_107) ?v_148)) (or (or P38 ?v_243) ?v_142)) (or (or ?v_207 ?v_36) ?v_170)) (or (or ?v_145 P18) ?v_237)) (or (or ?v_253 P44) ?v_145)) (or (or ?v_125 ?v_211) ?v_243)) (or (or ?v_121 (not ?v_87)) P5)) (or (or ?v_171 P25) P35)) (or (or ?v_106 ?v_31) ?v_167)) (or (or ?v_172 ?v_128) ?v_154)) (or (or ?v_200 ?v_126) ?v_54)) (or (or ?v_213 P19) P31)) (or (or ?v_177 ?v_143) ?v_142)) (or (or ?v_194 ?v_81) ?v_107)) (or (or ?v_154 ?v_207) P14)) (or (or ?v_143 P23) P20)) (or (or ?v_148 ?v_206) ?v_7)) (or (or ?v_82 ?v_119) ?v_149)) (or (or ?v_177 ?v_44) P24)) (or (or ?v_82 ?v_52) ?v_163)) (or (or ?v_6 ?v_175) ?v_218)) (or (or ?v_56 P23) ?v_188)) (or (or P18 ?v_138) ?v_238)) (or (or ?v_123 ?v_14) ?v_51)) (or (or ?v_13 ?v_33) P18)) (or (or ?v_150 ?v_139) ?v_242)) (or (or P20 ?v_162) ?v_197)) (or (or ?v_181 ?v_214) ?v_1)) (or (or ?v_130 ?v_146) P40)) (or (or ?v_129 ?v_232) ?v_227)) (or (or ?v_245 ?v_195) ?v_111)) (or (or ?v_93 ?v_216) ?v_179)) (or (or ?v_160 ?v_176) ?v_84)) (or (or P6 ?v_90) ?v_254)) (or (or ?v_248 ?v_111) ?v_171)) (or (or ?v_212 ?v_128) ?v_111)) (or (or ?v_166 P23) ?v_43)) (or (or ?v_116 ?v_5) ?v_52)) (or (or ?v_205 ?v_16) ?v_129)) (or (or ?v_255 ?v_228) ?v_61)) (or (or ?v_26 ?v_144) ?v_208)) (or (or ?v_14 ?v_72) ?v_118)) (or (or ?v_36 P15) P10)) (or (or ?v_29 ?v_21) ?v_82)) (or (or ?v_80 ?v_9) P37)) (or (or P42 ?v_154) ?v_162)) (or (or ?v_45 ?v_110) ?v_11)) (or (or P38 ?v_214) ?v_95)) (or (or ?v_161 ?v_43) ?v_107)) (or (or ?v_141 ?v_195) ?v_235)) (or (or ?v_57 ?v_102) ?v_94)) (or (or ?v_112 ?v_10) ?v_97)) (or (or ?v_204 ?v_209) ?v_138)) (or (or ?v_119 ?v_76) ?v_139)) (or (or ?v_220 ?v_177) ?v_130)) (or (or ?v_58 ?v_113) ?v_78)) (or (or ?v_180 ?v_173) ?v_168)) (or (or ?v_33 ?v_150) ?v_0)) (or (or ?v_84 ?v_69) ?v_249)) (or (or ?v_197 ?v_190) ?v_140)) (or (or ?v_189 ?v_148) ?v_104)) (or (or ?v_136 ?v_160) ?v_197))))))))))))))))))))))))))))))))
(check-sat)
(exit)
